(set-info :Origin "This instance was generated by: BanditFuzz-- an RL fuzzer for SMT solvers" )
(set-info :Author "Joe Scott, Fed Mora, Vijay Ganesh" )
(set-info :Contact "Joe Scott, joseph.scott@uwaterloo.ca")
(set-logic QF_BV)
(declare-const bool_0 Bool)
(declare-const bool_1 Bool)
(declare-const bool_2 Bool)
(declare-const bool_3 Bool)
(declare-const bool_4 Bool)
(declare-const bv_0 (_ BitVec 32))
(declare-const bv_1 (_ BitVec 32))
(declare-const bv_2 (_ BitVec 32))
(declare-const bv_3 (_ BitVec 32))
(declare-const bv_4 (_ BitVec 32))
(assert (bvsgt (bvsub (bvand #x39bb45cd  #x8ffe7296 ) (bvxnor bv_1 bv_1)) (bvnor (bvadd bv_2 bv_2) (bvmul #x0f992e61  bv_3))))
(assert (bvsgt (bvlshr (bvudiv bv_0 #x25b63245 ) (bvsdiv #xf4c8792c  #xc1c3431b )) (bvxnor (bvsrem #xd915b863  #x0d6163ec ) (bvsub #x47ffeb22  bv_4))))
(assert (=> (not (bvugt bv_4 #xcd63df33 )) (bvslt (bvashr #xa4daea1c  bv_2) (bvshl #x35aa7289  #xc8290c2f ))))
(assert (xor (bvult (bvudiv bv_2 bv_0) (bvudiv bv_1 bv_2)) (bvule (bvurem bv_0 bv_4) (bvxnor #xb5a32c07  #x105b3c12 ))))
(assert (bvslt (bvnand (bvurem bv_2 #xdbd768a2 ) (bvand #x114ca844  bv_4)) (bvor (bvsrem #x16947fe9  #xd6ba6b01 ) (bvand bv_3 bv_1))))
(check-sat)
(exit)
